c Sudoku solution
p cnf 729 0
169 0
195 0
213 0
234 0
341 0
379 0
229 0
383 0
412 0
426 0
599 0
611 0
638 0
439 0
666 0
677 0
684 0
715 0
768 0
773 0
837 0
851 0
889 0
919 0
892 0
693 0
625 0
533 0
335 0
954 0
975 0
986 0
576 0
582 0
485 0
561 0
188 0
652 0
649 0
759 0
478 0
491 0
874 0
998 0
724 0
514 0
527 0
394 0
296 0
287 0
144 0
153 0
117 0
136 0
121 0
322 0
318 0
172 0
271 0
356 0
367 0
816 0
828 0
923 0
746 0
732 0
931 0
464 0
457 0
443 0
845 0
863 0
548 0
555 0
947 0
962 0
242 0
265 0
258 0
781 0
797 0
